set N :=  1 2 3 4 5 6 7 8 9 10 11 12 13 14 15 16 17 18 19 20 21 22 23 24 25 26 27 28 29 30 31 32 33 34 35 36 37 38 39 40 41 42 43 44 45 46 47 48 49 50 51 52 53 54 55 56 57 58 59 60 61 62 63 64 65 66 67 68 69 70 71 72 73 74 75 76 77 78 79 80 81 82 83 84 85 ;

set M :=  1 2 3 4 5 6 7 8 9 10 11 12 13 14 15 ;

set T :=  1 2 3 4 5 6 7 8 9 10 11 12 13 14 15 16 17 18 19 20 21 22 23 24 ;

param arrival := 
    1 13
    2 8
    3 9
    4 10
    5 11
    6 7
    7 8
    8 2
    9 7
    10 10
    11 10
    12 11
    13 10
    14 8
    15 13
    16 4
    17 11
    18 6
    19 9
    20 6
    21 7
    22 4
    23 12
    24 8
    25 12
    26 6
    27 9
    28 4
    29 10
    30 8
    31 7
    32 7
    33 10
    34 7
    35 8
    36 9
    37 10
    38 9
    39 5
    40 8
    41 3
    42 7
    43 7
    44 6
    45 7
    46 10
    47 8
    48 8
    49 9
    50 8
    51 11
    52 11
    53 9
    54 7
    55 11
    56 10
    57 6
    58 7
    59 10
    60 10
    61 5
    62 8
    63 8
    64 8
    65 7
    66 9
    67 8
    68 10
    69 7
    70 9
    71 10
    72 7
    73 10
    74 9
    75 6
    76 7
    77 3
    78 9
    79 7
    80 11
    81 10
    82 9
    83 7
    84 7
    85 8
 ;

param depart := 
    1 22
    2 20
    3 20
    4 16
    5 19
    6 17
    7 18
    8 22
    9 16
    10 18
    11 16
    12 19
    13 21
    14 19
    15 18
    16 17
    17 17
    18 20
    19 22
    20 20
    21 19
    22 17
    23 17
    24 22
    25 21
    26 17
    27 18
    28 21
    29 20
    30 19
    31 17
    32 20
    33 24
    34 21
    35 20
    36 19
    37 16
    38 18
    39 20
    40 23
    41 20
    42 19
    43 23
    44 19
    45 21
    46 21
    47 23
    48 24
    49 20
    50 22
    51 17
    52 18
    53 20
    54 20
    55 22
    56 20
    57 19
    58 23
    59 18
    60 19
    61 19
    62 22
    63 17
    64 21
    65 21
    66 18
    67 20
    68 17
    69 19
    70 21
    71 22
    72 20
    73 23
    74 21
    75 18
    76 22
    77 21
    78 21
    79 19
    80 23
    81 17
    82 22
    83 21
    84 16
    85 19
 ;

param demand := 
    1 10
    2 9
    3 16
    4 11
    5 16
    6 16
    7 24
    8 39
    9 4
    10 5
    11 35
    12 16
    13 35
    14 23
    15 15
    16 34
    17 22
    18 11
    19 14
    20 11
    21 17
    22 6
    23 6
    24 16
    25 16
    26 25
    27 11
    28 15
    29 16
    30 16
    31 13
    32 36
    33 7
    34 19
    35 16
    36 16
    37 14
    38 22
    39 13
    40 16
    41 20
    42 8
    43 12
    44 13
    45 16
    46 10
    47 19
    48 13
    49 36
    50 8
    51 12
    52 8
    53 14
    54 16
    55 10
    56 12
    57 16
    58 19
    59 36
    60 23
    61 11
    62 15
    63 18
    64 13
    65 22
    66 20
    67 22
    68 7
    69 16
    70 14
    71 43
    72 17
    73 24
    74 8
    75 43
    76 17
    77 19
    78 13
    79 5
    80 7
    81 10
    82 12
    83 7
    84 3
    85 12
 ;

param installed_chargers := 
 1 4
 2 4
 3 8
 4 8
 5 8
 6 8
 7 8
 8 8
 9 8
 10 19
 11 19
 12 19
 13 19
 14 19
 15 19
 ;

param installed_cost := 
 1 1000
 2 1000
 3 1500
 4 1500
 5 1500
 6 1500
 7 1500
 8 1500
 9 1500
 10 2200
 11 2200
 12 2200
 13 2200
 14 2200
 15 2200
 ;

param POWER := 
    1 1 4
    2 1 4
    3 1 4
    4 1 4
    5 1 4
    6 1 4
    7 1 4
    8 1 4
    9 1 4
    10 1 4
    11 1 4
    12 1 4
    13 1 4
    14 1 4
    15 1 4
    16 1 4
    17 1 4
    18 1 4
    19 1 4
    20 1 4
    21 1 4
    22 1 4
    23 1 4
    24 1 4
    25 1 4
    26 1 4
    27 1 4
    28 1 4
    29 1 4
    30 1 4
    31 1 4
    32 1 4
    33 1 4
    34 1 4
    35 1 4
    36 1 4
    37 1 4
    38 1 4
    39 1 4
    40 1 4
    41 1 4
    42 1 4
    43 1 4
    44 1 4
    45 1 4
    46 1 4
    47 1 4
    48 1 4
    49 1 4
    50 1 4
    51 1 4
    52 1 4
    53 1 4
    54 1 4
    55 1 4
    56 1 4
    57 1 4
    58 1 4
    59 1 4
    60 1 4
    61 1 4
    62 1 4
    63 1 4
    64 1 4
    65 1 4
    66 1 4
    67 1 4
    68 1 4
    69 1 4
    70 1 4
    71 1 4
    72 1 4
    73 1 4
    74 1 4
    75 1 4
    76 1 4
    77 1 4
    78 1 4
    79 1 4
    80 1 4
    81 1 4
    82 1 4
    83 1 4
    84 1 4
    85 1 4
    1 2 4
    2 2 4
    3 2 4
    4 2 4
    5 2 4
    6 2 4
    7 2 4
    8 2 4
    9 2 4
    10 2 4
    11 2 4
    12 2 4
    13 2 4
    14 2 4
    15 2 4
    16 2 4
    17 2 4
    18 2 4
    19 2 4
    20 2 4
    21 2 4
    22 2 4
    23 2 4
    24 2 4
    25 2 4
    26 2 4
    27 2 4
    28 2 4
    29 2 4
    30 2 4
    31 2 4
    32 2 4
    33 2 4
    34 2 4
    35 2 4
    36 2 4
    37 2 4
    38 2 4
    39 2 4
    40 2 4
    41 2 4
    42 2 4
    43 2 4
    44 2 4
    45 2 4
    46 2 4
    47 2 4
    48 2 4
    49 2 4
    50 2 4
    51 2 4
    52 2 4
    53 2 4
    54 2 4
    55 2 4
    56 2 4
    57 2 4
    58 2 4
    59 2 4
    60 2 4
    61 2 4
    62 2 4
    63 2 4
    64 2 4
    65 2 4
    66 2 4
    67 2 4
    68 2 4
    69 2 4
    70 2 4
    71 2 4
    72 2 4
    73 2 4
    74 2 4
    75 2 4
    76 2 4
    77 2 4
    78 2 4
    79 2 4
    80 2 4
    81 2 4
    82 2 4
    83 2 4
    84 2 4
    85 2 4
    1 3 8
    2 3 8
    3 3 8
    4 3 8
    5 3 8
    6 3 8
    7 3 8
    8 3 8
    9 3 8
    10 3 8
    11 3 8
    12 3 8
    13 3 8
    14 3 8
    15 3 8
    16 3 8
    17 3 8
    18 3 8
    19 3 8
    20 3 8
    21 3 8
    22 3 8
    23 3 8
    24 3 8
    25 3 8
    26 3 8
    27 3 8
    28 3 8
    29 3 8
    30 3 8
    31 3 8
    32 3 8
    33 3 8
    34 3 8
    35 3 8
    36 3 8
    37 3 8
    38 3 8
    39 3 8
    40 3 8
    41 3 8
    42 3 8
    43 3 8
    44 3 8
    45 3 8
    46 3 8
    47 3 8
    48 3 8
    49 3 8
    50 3 8
    51 3 8
    52 3 8
    53 3 8
    54 3 8
    55 3 8
    56 3 8
    57 3 8
    58 3 8
    59 3 8
    60 3 8
    61 3 8
    62 3 8
    63 3 8
    64 3 8
    65 3 8
    66 3 8
    67 3 8
    68 3 8
    69 3 8
    70 3 8
    71 3 8
    72 3 8
    73 3 8
    74 3 8
    75 3 8
    76 3 8
    77 3 8
    78 3 8
    79 3 8
    80 3 8
    81 3 8
    82 3 8
    83 3 8
    84 3 8
    85 3 8
    1 4 8
    2 4 8
    3 4 8
    4 4 8
    5 4 8
    6 4 8
    7 4 8
    8 4 8
    9 4 8
    10 4 8
    11 4 8
    12 4 8
    13 4 8
    14 4 8
    15 4 8
    16 4 8
    17 4 8
    18 4 8
    19 4 8
    20 4 8
    21 4 8
    22 4 8
    23 4 8
    24 4 8
    25 4 8
    26 4 8
    27 4 8
    28 4 8
    29 4 8
    30 4 8
    31 4 8
    32 4 8
    33 4 8
    34 4 8
    35 4 8
    36 4 8
    37 4 8
    38 4 8
    39 4 8
    40 4 8
    41 4 8
    42 4 8
    43 4 8
    44 4 8
    45 4 8
    46 4 8
    47 4 8
    48 4 8
    49 4 8
    50 4 8
    51 4 8
    52 4 8
    53 4 8
    54 4 8
    55 4 8
    56 4 8
    57 4 8
    58 4 8
    59 4 8
    60 4 8
    61 4 8
    62 4 8
    63 4 8
    64 4 8
    65 4 8
    66 4 8
    67 4 8
    68 4 8
    69 4 8
    70 4 8
    71 4 8
    72 4 8
    73 4 8
    74 4 8
    75 4 8
    76 4 8
    77 4 8
    78 4 8
    79 4 8
    80 4 8
    81 4 8
    82 4 8
    83 4 8
    84 4 8
    85 4 8
    1 5 8
    2 5 8
    3 5 8
    4 5 8
    5 5 8
    6 5 8
    7 5 8
    8 5 8
    9 5 8
    10 5 8
    11 5 8
    12 5 8
    13 5 8
    14 5 8
    15 5 8
    16 5 8
    17 5 8
    18 5 8
    19 5 8
    20 5 8
    21 5 8
    22 5 8
    23 5 8
    24 5 8
    25 5 8
    26 5 8
    27 5 8
    28 5 8
    29 5 8
    30 5 8
    31 5 8
    32 5 8
    33 5 8
    34 5 8
    35 5 8
    36 5 8
    37 5 8
    38 5 8
    39 5 8
    40 5 8
    41 5 8
    42 5 8
    43 5 8
    44 5 8
    45 5 8
    46 5 8
    47 5 8
    48 5 8
    49 5 8
    50 5 8
    51 5 8
    52 5 8
    53 5 8
    54 5 8
    55 5 8
    56 5 8
    57 5 8
    58 5 8
    59 5 8
    60 5 8
    61 5 8
    62 5 8
    63 5 8
    64 5 8
    65 5 8
    66 5 8
    67 5 8
    68 5 8
    69 5 8
    70 5 8
    71 5 8
    72 5 8
    73 5 8
    74 5 8
    75 5 8
    76 5 8
    77 5 8
    78 5 8
    79 5 8
    80 5 8
    81 5 8
    82 5 8
    83 5 8
    84 5 8
    85 5 8
    1 6 8
    2 6 8
    3 6 8
    4 6 8
    5 6 8
    6 6 8
    7 6 8
    8 6 8
    9 6 8
    10 6 8
    11 6 8
    12 6 8
    13 6 8
    14 6 8
    15 6 8
    16 6 8
    17 6 8
    18 6 8
    19 6 8
    20 6 8
    21 6 8
    22 6 8
    23 6 8
    24 6 8
    25 6 8
    26 6 8
    27 6 8
    28 6 8
    29 6 8
    30 6 8
    31 6 8
    32 6 8
    33 6 8
    34 6 8
    35 6 8
    36 6 8
    37 6 8
    38 6 8
    39 6 8
    40 6 8
    41 6 8
    42 6 8
    43 6 8
    44 6 8
    45 6 8
    46 6 8
    47 6 8
    48 6 8
    49 6 8
    50 6 8
    51 6 8
    52 6 8
    53 6 8
    54 6 8
    55 6 8
    56 6 8
    57 6 8
    58 6 8
    59 6 8
    60 6 8
    61 6 8
    62 6 8
    63 6 8
    64 6 8
    65 6 8
    66 6 8
    67 6 8
    68 6 8
    69 6 8
    70 6 8
    71 6 8
    72 6 8
    73 6 8
    74 6 8
    75 6 8
    76 6 8
    77 6 8
    78 6 8
    79 6 8
    80 6 8
    81 6 8
    82 6 8
    83 6 8
    84 6 8
    85 6 8
    1 7 8
    2 7 8
    3 7 8
    4 7 8
    5 7 8
    6 7 8
    7 7 8
    8 7 8
    9 7 8
    10 7 8
    11 7 8
    12 7 8
    13 7 8
    14 7 8
    15 7 8
    16 7 8
    17 7 8
    18 7 8
    19 7 8
    20 7 8
    21 7 8
    22 7 8
    23 7 8
    24 7 8
    25 7 8
    26 7 8
    27 7 8
    28 7 8
    29 7 8
    30 7 8
    31 7 8
    32 7 8
    33 7 8
    34 7 8
    35 7 8
    36 7 8
    37 7 8
    38 7 8
    39 7 8
    40 7 8
    41 7 8
    42 7 8
    43 7 8
    44 7 8
    45 7 8
    46 7 8
    47 7 8
    48 7 8
    49 7 8
    50 7 8
    51 7 8
    52 7 8
    53 7 8
    54 7 8
    55 7 8
    56 7 8
    57 7 8
    58 7 8
    59 7 8
    60 7 8
    61 7 8
    62 7 8
    63 7 8
    64 7 8
    65 7 8
    66 7 8
    67 7 8
    68 7 8
    69 7 8
    70 7 8
    71 7 8
    72 7 8
    73 7 8
    74 7 8
    75 7 8
    76 7 8
    77 7 8
    78 7 8
    79 7 8
    80 7 8
    81 7 8
    82 7 8
    83 7 8
    84 7 8
    85 7 8
    1 8 8
    2 8 8
    3 8 8
    4 8 8
    5 8 8
    6 8 8
    7 8 8
    8 8 8
    9 8 8
    10 8 8
    11 8 8
    12 8 8
    13 8 8
    14 8 8
    15 8 8
    16 8 8
    17 8 8
    18 8 8
    19 8 8
    20 8 8
    21 8 8
    22 8 8
    23 8 8
    24 8 8
    25 8 8
    26 8 8
    27 8 8
    28 8 8
    29 8 8
    30 8 8
    31 8 8
    32 8 8
    33 8 8
    34 8 8
    35 8 8
    36 8 8
    37 8 8
    38 8 8
    39 8 8
    40 8 8
    41 8 8
    42 8 8
    43 8 8
    44 8 8
    45 8 8
    46 8 8
    47 8 8
    48 8 8
    49 8 8
    50 8 8
    51 8 8
    52 8 8
    53 8 8
    54 8 8
    55 8 8
    56 8 8
    57 8 8
    58 8 8
    59 8 8
    60 8 8
    61 8 8
    62 8 8
    63 8 8
    64 8 8
    65 8 8
    66 8 8
    67 8 8
    68 8 8
    69 8 8
    70 8 8
    71 8 8
    72 8 8
    73 8 8
    74 8 8
    75 8 8
    76 8 8
    77 8 8
    78 8 8
    79 8 8
    80 8 8
    81 8 8
    82 8 8
    83 8 8
    84 8 8
    85 8 8
    1 9 8
    2 9 8
    3 9 8
    4 9 8
    5 9 8
    6 9 8
    7 9 8
    8 9 8
    9 9 8
    10 9 8
    11 9 8
    12 9 8
    13 9 8
    14 9 8
    15 9 8
    16 9 8
    17 9 8
    18 9 8
    19 9 8
    20 9 8
    21 9 8
    22 9 8
    23 9 8
    24 9 8
    25 9 8
    26 9 8
    27 9 8
    28 9 8
    29 9 8
    30 9 8
    31 9 8
    32 9 8
    33 9 8
    34 9 8
    35 9 8
    36 9 8
    37 9 8
    38 9 8
    39 9 8
    40 9 8
    41 9 8
    42 9 8
    43 9 8
    44 9 8
    45 9 8
    46 9 8
    47 9 8
    48 9 8
    49 9 8
    50 9 8
    51 9 8
    52 9 8
    53 9 8
    54 9 8
    55 9 8
    56 9 8
    57 9 8
    58 9 8
    59 9 8
    60 9 8
    61 9 8
    62 9 8
    63 9 8
    64 9 8
    65 9 8
    66 9 8
    67 9 8
    68 9 8
    69 9 8
    70 9 8
    71 9 8
    72 9 8
    73 9 8
    74 9 8
    75 9 8
    76 9 8
    77 9 8
    78 9 8
    79 9 8
    80 9 8
    81 9 8
    82 9 8
    83 9 8
    84 9 8
    85 9 8
    1 10 19
    2 10 8
    3 10 19
    4 10 8
    5 10 8
    6 10 8
    7 10 19
    8 10 19
    9 10 19
    10 10 8
    11 10 19
    12 10 8
    13 10 19
    14 10 19
    15 10 19
    16 10 19
    17 10 19
    18 10 19
    19 10 8
    20 10 19
    21 10 19
    22 10 8
    23 10 19
    24 10 8
    25 10 8
    26 10 19
    27 10 8
    28 10 8
    29 10 8
    30 10 8
    31 10 8
    32 10 19
    33 10 8
    34 10 19
    35 10 8
    36 10 19
    37 10 19
    38 10 19
    39 10 19
    40 10 8
    41 10 19
    42 10 19
    43 10 8
    44 10 8
    45 10 8
    46 10 8
    47 10 19
    48 10 19
    49 10 19
    50 10 8
    51 10 8
    52 10 8
    53 10 8
    54 10 8
    55 10 19
    56 10 19
    57 10 8
    58 10 19
    59 10 19
    60 10 19
    61 10 19
    62 10 19
    63 10 19
    64 10 8
    65 10 19
    66 10 19
    67 10 19
    68 10 8
    69 10 8
    70 10 19
    71 10 19
    72 10 19
    73 10 19
    74 10 19
    75 10 19
    76 10 19
    77 10 19
    78 10 19
    79 10 8
    80 10 19
    81 10 19
    82 10 19
    83 10 8
    84 10 8
    85 10 19
    1 11 19
    2 11 8
    3 11 19
    4 11 8
    5 11 8
    6 11 8
    7 11 19
    8 11 19
    9 11 19
    10 11 8
    11 11 19
    12 11 8
    13 11 19
    14 11 19
    15 11 19
    16 11 19
    17 11 19
    18 11 19
    19 11 8
    20 11 19
    21 11 19
    22 11 8
    23 11 19
    24 11 8
    25 11 8
    26 11 19
    27 11 8
    28 11 8
    29 11 8
    30 11 8
    31 11 8
    32 11 19
    33 11 8
    34 11 19
    35 11 8
    36 11 19
    37 11 19
    38 11 19
    39 11 19
    40 11 8
    41 11 19
    42 11 19
    43 11 8
    44 11 8
    45 11 8
    46 11 8
    47 11 19
    48 11 19
    49 11 19
    50 11 8
    51 11 8
    52 11 8
    53 11 8
    54 11 8
    55 11 19
    56 11 19
    57 11 8
    58 11 19
    59 11 19
    60 11 19
    61 11 19
    62 11 19
    63 11 19
    64 11 8
    65 11 19
    66 11 19
    67 11 19
    68 11 8
    69 11 8
    70 11 19
    71 11 19
    72 11 19
    73 11 19
    74 11 19
    75 11 19
    76 11 19
    77 11 19
    78 11 19
    79 11 8
    80 11 19
    81 11 19
    82 11 19
    83 11 8
    84 11 8
    85 11 19
    1 12 19
    2 12 8
    3 12 19
    4 12 8
    5 12 8
    6 12 8
    7 12 19
    8 12 19
    9 12 19
    10 12 8
    11 12 19
    12 12 8
    13 12 19
    14 12 19
    15 12 19
    16 12 19
    17 12 19
    18 12 19
    19 12 8
    20 12 19
    21 12 19
    22 12 8
    23 12 19
    24 12 8
    25 12 8
    26 12 19
    27 12 8
    28 12 8
    29 12 8
    30 12 8
    31 12 8
    32 12 19
    33 12 8
    34 12 19
    35 12 8
    36 12 19
    37 12 19
    38 12 19
    39 12 19
    40 12 8
    41 12 19
    42 12 19
    43 12 8
    44 12 8
    45 12 8
    46 12 8
    47 12 19
    48 12 19
    49 12 19
    50 12 8
    51 12 8
    52 12 8
    53 12 8
    54 12 8
    55 12 19
    56 12 19
    57 12 8
    58 12 19
    59 12 19
    60 12 19
    61 12 19
    62 12 19
    63 12 19
    64 12 8
    65 12 19
    66 12 19
    67 12 19
    68 12 8
    69 12 8
    70 12 19
    71 12 19
    72 12 19
    73 12 19
    74 12 19
    75 12 19
    76 12 19
    77 12 19
    78 12 19
    79 12 8
    80 12 19
    81 12 19
    82 12 19
    83 12 8
    84 12 8
    85 12 19
    1 13 19
    2 13 8
    3 13 19
    4 13 8
    5 13 8
    6 13 8
    7 13 19
    8 13 19
    9 13 19
    10 13 8
    11 13 19
    12 13 8
    13 13 19
    14 13 19
    15 13 19
    16 13 19
    17 13 19
    18 13 19
    19 13 8
    20 13 19
    21 13 19
    22 13 8
    23 13 19
    24 13 8
    25 13 8
    26 13 19
    27 13 8
    28 13 8
    29 13 8
    30 13 8
    31 13 8
    32 13 19
    33 13 8
    34 13 19
    35 13 8
    36 13 19
    37 13 19
    38 13 19
    39 13 19
    40 13 8
    41 13 19
    42 13 19
    43 13 8
    44 13 8
    45 13 8
    46 13 8
    47 13 19
    48 13 19
    49 13 19
    50 13 8
    51 13 8
    52 13 8
    53 13 8
    54 13 8
    55 13 19
    56 13 19
    57 13 8
    58 13 19
    59 13 19
    60 13 19
    61 13 19
    62 13 19
    63 13 19
    64 13 8
    65 13 19
    66 13 19
    67 13 19
    68 13 8
    69 13 8
    70 13 19
    71 13 19
    72 13 19
    73 13 19
    74 13 19
    75 13 19
    76 13 19
    77 13 19
    78 13 19
    79 13 8
    80 13 19
    81 13 19
    82 13 19
    83 13 8
    84 13 8
    85 13 19
    1 14 19
    2 14 8
    3 14 19
    4 14 8
    5 14 8
    6 14 8
    7 14 19
    8 14 19
    9 14 19
    10 14 8
    11 14 19
    12 14 8
    13 14 19
    14 14 19
    15 14 19
    16 14 19
    17 14 19
    18 14 19
    19 14 8
    20 14 19
    21 14 19
    22 14 8
    23 14 19
    24 14 8
    25 14 8
    26 14 19
    27 14 8
    28 14 8
    29 14 8
    30 14 8
    31 14 8
    32 14 19
    33 14 8
    34 14 19
    35 14 8
    36 14 19
    37 14 19
    38 14 19
    39 14 19
    40 14 8
    41 14 19
    42 14 19
    43 14 8
    44 14 8
    45 14 8
    46 14 8
    47 14 19
    48 14 19
    49 14 19
    50 14 8
    51 14 8
    52 14 8
    53 14 8
    54 14 8
    55 14 19
    56 14 19
    57 14 8
    58 14 19
    59 14 19
    60 14 19
    61 14 19
    62 14 19
    63 14 19
    64 14 8
    65 14 19
    66 14 19
    67 14 19
    68 14 8
    69 14 8
    70 14 19
    71 14 19
    72 14 19
    73 14 19
    74 14 19
    75 14 19
    76 14 19
    77 14 19
    78 14 19
    79 14 8
    80 14 19
    81 14 19
    82 14 19
    83 14 8
    84 14 8
    85 14 19
    1 15 19
    2 15 8
    3 15 19
    4 15 8
    5 15 8
    6 15 8
    7 15 19
    8 15 19
    9 15 19
    10 15 8
    11 15 19
    12 15 8
    13 15 19
    14 15 19
    15 15 19
    16 15 19
    17 15 19
    18 15 19
    19 15 8
    20 15 19
    21 15 19
    22 15 8
    23 15 19
    24 15 8
    25 15 8
    26 15 19
    27 15 8
    28 15 8
    29 15 8
    30 15 8
    31 15 8
    32 15 19
    33 15 8
    34 15 19
    35 15 8
    36 15 19
    37 15 19
    38 15 19
    39 15 19
    40 15 8
    41 15 19
    42 15 19
    43 15 8
    44 15 8
    45 15 8
    46 15 8
    47 15 19
    48 15 19
    49 15 19
    50 15 8
    51 15 8
    52 15 8
    53 15 8
    54 15 8
    55 15 19
    56 15 19
    57 15 8
    58 15 19
    59 15 19
    60 15 19
    61 15 19
    62 15 19
    63 15 19
    64 15 8
    65 15 19
    66 15 19
    67 15 19
    68 15 8
    69 15 8
    70 15 19
    71 15 19
    72 15 19
    73 15 19
    74 15 19
    75 15 19
    76 15 19
    77 15 19
    78 15 19
    79 15 8
    80 15 19
    81 15 19
    82 15 19
    83 15 8
    84 15 8
    85 15 19
 ;

